10J3M/DAT/10J3MNNA-13.dat
10 3
26.2784 690.5543
22.1668 491.367
21.6377 468.1901
21.8517 477.4968
30.6543 939.6861
15.1876 230.6632
21.7051 471.1114
23.6207 557.9375
26.0586 679.0506
35.7153 1275.5827
6281.6397