10J3M/SOL/10J3MNNA-13.sol
solution status: optimal solution found
objective value:                              84.2788
x#1#1                                               1 	(obj:0)
x#2#2                                               1 	(obj:0)
x#3#1                                               1 	(obj:0)
x#4#3                                               1 	(obj:0)
x#5#1                                               1 	(obj:0)
x#6#2                                               1 	(obj:0)
x#7#2                                               1 	(obj:0)
x#8#3                                               1 	(obj:0)
x#9#1                               0.875972262504284 	(obj:0)
x#9#2                               0.124027737495716 	(obj:0)
x#10#2                              0.178856382978724 	(obj:0)
x#10#3                              0.821143617021276 	(obj:0)
z                                             84.2788 	(obj:1)
